0 1946
1 1811
2 1739
3 1654
4 1637
5 1578
6 1510
7 1510
8 1488
9 1444
10 1409
11 1364
12 1315
13 1315
14 1303
15 1294
16 1238
17 1232
18 1208
19 1208
20 1189
21 1182
22 1182
23 1182
24 1160
25 1160
26 1145
27 1145
28 1131
29 1124
30 1122
31 1115
32 1115
33 1102
34 1097
35 1097
36 1082
37 1082
38 1082
39 1082
40 1052
41 1052
42 1021
43 1021
44 1021
45 1021
46 1021
47 1021
48 1003
49 988
50 987
51 983
52 983
53 961
54 961
55 961
56 961
57 958
58 958
59 958
60 958
61 954
62 953
63 953
64 952
65 944
66 944
67 944
68 944
69 944
70 944
71 941
72 941
73 941
74 941
75 941
76 941
77 938
78 938
79 938
80 938
81 937
82 937
83 934
84 934
85 934
86 934
87 933
88 933
89 933
90 933
91 933
92 933
93 930
94 925
95 925
96 925
97 925
98 925
99 925
100 925
101 925
102 925
103 925
104 925
105 925
106 925
107 925
108 925
109 925
110 925
111 925
112 925
113 925
114 925
115 925
116 925
117 925
118 925
119 925
120 925
121 925
122 925
123 925
124 925
125 925
126 925
127 925
128 925
129 925
130 925
131 925
132 925
133 925
134 925
135 925
136 925
137 925
138 925
139 925
140 925
141 925
142 925
143 925
144 925
145 925
146 925
147 925
148 925
149 925
150 925
151 925
152 925
153 925
154 925
155 925
156 925
157 925
158 925
159 925
160 925
161 925
162 925
163 925
164 925
165 925
166 925
167 925
168 925
169 925
170 925
171 925
172 925
173 925
174 925
175 925
176 925
177 925
178 925
179 925
180 925
181 925
182 925
183 925
184 925
185 925
186 925
187 925
188 925
189 925
190 925
191 925
192 925
193 925
194 925
195 925
196 925
197 925
198 925
199 925
200 925
201 925
202 925
203 925
204 925
205 925
206 925
207 925
208 925
209 925
210 925
211 925
212 925
213 925
214 925
215 925
216 925
217 925
218 925
219 925
220 925
221 925
222 925
223 925
224 925
225 925
226 925
227 925
228 925
229 925
230 925
231 925
232 925
233 925
234 925
235 925
236 925
237 925
238 925
239 925
240 925
241 925
242 925
243 925
244 925
245 925
246 925
247 925
248 925
249 925
250 925
251 925
252 925
253 925
254 925
255 925
256 925
257 925
258 925
259 925
260 925
261 925
262 925
263 925
264 925
265 925
266 925
267 925
268 925
269 925
270 925
271 925
272 925
273 925
274 925
275 925
276 925
277 925
278 925
279 925
280 925
281 925
282 925
283 925
284 925
285 925
286 925
287 925
288 925
289 925
290 925
291 925
292 925
293 925
294 925
295 925
296 925
297 925
298 925
299 925
300 925
301 925
302 925
303 925
304 925
305 925
306 925
307 925
308 925
309 925
310 925
311 925
312 925
313 925
314 925
315 925
316 925
317 925
318 925
319 925
320 925
321 925
322 925
323 925
324 925
325 925
326 925
327 925
328 925
329 925
330 925
331 925
332 925
333 925
334 925
335 925
336 925
337 925
338 925
339 925
340 925
341 925
342 925
343 925
344 925
345 925
346 925
347 925
348 925
349 925
350 925
351 925
352 925
353 925
354 925
355 925
356 925
357 925
358 925
359 925
360 925
361 925
362 925
363 925
364 925
365 925
366 925
367 925
368 925
369 925
370 925
371 925
372 925
373 925
374 925
375 925
376 925
377 925
378 925
379 925
380 925
381 925
382 925
383 925
384 925
385 925
386 925
387 925
388 925
389 925
390 925
391 925
392 925
393 925
394 925
395 925
396 925
397 925
398 925
399 925
400 925
401 925
402 925
403 925
404 925
405 925
406 925
407 925
408 925
409 925
410 925
411 925
412 925
413 925
414 925
415 925
416 925
417 925
418 925
419 925
420 925
421 925
422 925
423 925
424 925
425 925
426 925
427 925
428 925
429 925
430 925
431 925
432 925
433 925
434 925
435 925
436 925
437 925
438 925
439 925
440 925
441 925
442 925
443 925
444 925
445 925
446 925
447 925
448 925
449 925
450 925
451 925
452 925
453 925
454 925
455 925
456 925
457 925
458 925
459 925
460 925
461 925
462 925
463 925
464 925
465 925
466 925
467 925
468 925
469 925
470 925
471 925
472 925
473 925
474 925
475 925
476 925
477 925
478 925
479 925
480 925
481 925
482 925
483 925
484 925
485 925
486 925
487 925
488 925
489 925
490 925
491 925
492 925
493 925
494 925
495 925
496 925
497 925
498 925
499 925
500 925
501 925
502 925
503 925
504 925
505 925
506 925
507 925
508 925
509 925
510 925
511 925
512 925
513 925
514 925
515 925
516 925
517 925
518 925
519 925
520 925
521 925
522 925
523 925
524 925
525 925
526 925
527 925
528 925
529 925
530 925
531 925
532 925
533 925
534 925
535 925
536 925
537 925
538 925
539 925
540 925
541 925
542 925
543 925
544 925
545 925
546 925
547 925
548 925
549 925
550 925
551 925
552 925
553 925
554 925
555 925
556 925
557 925
558 925
559 925
560 925
561 925
562 925
563 925
564 925
565 925
566 925
567 925
568 925
569 925
570 925
571 925
572 925
573 925
574 925
575 925
576 925
577 925
578 925
579 925
580 925
581 925
582 925
583 925
584 925
585 925
586 925
587 925
588 925
589 925
590 925
591 925
592 925
593 925
594 925
595 925
596 925
597 925
598 925
599 925
600 925
601 925
602 925
603 925
604 925
605 925
606 925
607 925
608 925
609 925
610 925
611 925
612 925
613 925
614 925
615 925
616 925
617 925
618 925
619 925
620 925
621 925
622 925
623 925
624 925
625 925
626 925
627 925
628 925
629 925
630 925
631 925
632 925
633 925
634 925
635 925
636 925
637 925
638 925
639 925
640 925
641 925
642 925
643 925
644 925
645 925
646 925
647 925
648 925
649 925
650 925
651 925
652 925
653 925
654 925
655 925
656 925
657 925
658 925
659 925
660 925
661 925
662 925
663 925
664 925
665 925
666 925
667 925
668 925
669 925
670 925
671 925
672 925
673 925
674 925
675 925
676 925
677 925
678 925
679 925
680 925
681 925
682 925
683 925
684 925
685 925
686 925
687 925
688 925
689 925
690 925
691 925
692 925
693 925
694 925
695 925
696 925
697 925
698 925
699 925
700 925
701 925
702 925
703 925
704 925
705 925
706 925
707 925
708 925
709 925
710 925
711 925
712 925
713 925
714 925
715 925
716 925
717 925
718 925
719 925
720 925
721 925
722 925
723 925
724 925
725 925
726 925
727 925
728 925
729 925
730 925
731 925
732 925
733 925
734 925
735 925
736 925
737 925
738 925
739 925
740 925
741 925
742 925
743 925
744 925
745 925
746 925
747 925
748 925
749 925
750 925
751 925
752 925
753 925
754 925
755 925
756 925
757 925
758 925
759 925
760 925
761 925
762 925
763 925
764 925
765 925
766 925
767 925
768 925
769 925
770 925
771 925
772 925
773 925
774 925
775 925
776 925
777 925
778 925
779 925
780 925
781 925
782 925
783 925
784 925
785 925
786 925
787 925
788 925
789 925
790 925
791 925
792 925
793 925
794 925
795 925
796 925
797 925
798 925
799 925
800 925
801 925
802 925
803 925
804 925
805 925
806 925
807 925
808 925
809 925
810 925
811 925
812 925
813 925
814 925
815 925
816 925
817 925
818 925
819 925
820 925
821 925
822 925
823 925
824 925
825 925
826 925
827 925
828 925
829 925
830 925
831 925
832 925
833 925
834 925
835 925
836 925
837 925
838 925
839 925
840 925
841 925
842 925
843 925
844 925
845 925
846 925
847 925
848 925
849 925
850 925
851 925
852 925
853 925
854 925
855 925
856 925
857 925
858 925
859 925
860 925
861 925
862 925
863 925
864 925
865 925
866 925
867 925
868 925
869 925
870 925
871 925
872 925
873 925
874 925
875 925
876 925
877 925
878 925
879 925
880 925
881 925
882 925
883 925
884 925
885 925
886 925
887 925
888 925
889 925
890 925
891 925
892 925
893 925
894 925
895 925
896 925
897 925
898 925
899 925
900 925
901 925
902 925
903 925
904 925
905 925
906 925
907 925
908 925
909 925
910 925
911 925
912 925
913 925
914 925
915 925
916 925
917 925
918 925
919 925
920 925
921 925
922 925
923 925
924 925
925 925
926 925
927 925
928 925
929 925
930 925
931 925
932 925
933 925
934 925
935 925
936 925
937 925
938 925
939 925
940 925
941 925
942 925
943 925
944 925
945 925
946 925
947 925
948 925
949 925
950 925
951 925
952 925
953 925
954 925
955 925
956 925
957 925
958 925
959 925
960 925
961 925
962 925
963 925
964 925
965 925
966 925
967 925
968 925
969 925
970 925
971 925
972 925
973 925
974 925
975 925
976 925
977 925
978 925
979 925
980 925
981 925
982 925
983 925
984 925
985 925
986 925
987 925
988 925
989 925
990 925
991 925
992 925
993 925
994 925
995 925
996 925
997 925
998 925
999 925
Best: [[28,25,24,3,7],
       [27,8,22,32,20,18,14],
       [21,30,16,10,9,19],
       [13,2,17,31],
       [15,4,29,5,12,23,11,26,6]], fitness: 925
